% Auto-generated by scripts/generate_dzn.py
% problem_type   = nonogram
% instance       = nonogram_66
% source_json    = instances_json/0_low_blowup/nonogram_66.json
% blowup         = 1.1829268292682926
% representation = NFA

mode = 1;

height = 5;
width = 10;
Q = 9;
S = 2;
row_q0 = [1, 1, 1, 1, 1];
row_F = [{9}, {8}, {6}, {9}, {6}];
col_q0 = [1, 1, 1, 1, 1, 1, 1, 1, 1, 1];
col_F = [{5}, {4}, {5}, {6}, {5}, {2}, {4}, {4}, {3}, {6}];
row_d_dfa = array3d(1..5, 1..9, 1..2, [
  % k = 1
    0, 0,
    0, 0,
    0, 0,
    0, 0,
    0, 0,
    0, 0,
    0, 0,
    0, 0,
    0, 0,

  % k = 2
    0, 0,
    0, 0,
    0, 0,
    0, 0,
    0, 0,
    0, 0,
    0, 0,
    0, 0,
    0, 0,

  % k = 3
    0, 0,
    0, 0,
    0, 0,
    0, 0,
    0, 0,
    0, 0,
    0, 0,
    0, 0,
    0, 0,

  % k = 4
    0, 0,
    0, 0,
    0, 0,
    0, 0,
    0, 0,
    0, 0,
    0, 0,
    0, 0,
    0, 0,

  % k = 5
    0, 0,
    0, 0,
    0, 0,
    0, 0,
    0, 0,
    0, 0,
    0, 0,
    0, 0,
    0, 0
]);
row_d_nfa = array3d(1..5, 1..9, 1..2, [
  % k = 1
    {1}, {2},
    {3}, {},
    {3}, {4},
    {}, {5},
    {6}, {},
    {6}, {7},
    {}, {8},
    {}, {9},
    {9}, {},

  % k = 2
    {1}, {2},
    {}, {3},
    {4}, {},
    {4}, {5},
    {6}, {},
    {6}, {7},
    {}, {8},
    {8}, {},
    {}, {},

  % k = 3
    {1}, {2},
    {}, {3},
    {}, {4},
    {}, {5},
    {}, {6},
    {6}, {},
    {}, {},
    {}, {},
    {}, {},

  % k = 4
    {1}, {2},
    {3}, {},
    {3}, {4},
    {}, {5},
    {}, {6},
    {}, {7},
    {8}, {},
    {8}, {9},
    {9}, {},

  % k = 5
    {1}, {2},
    {}, {3},
    {}, {4},
    {5}, {},
    {5}, {6},
    {6}, {},
    {}, {},
    {}, {},
    {}, {}
]);
col_d_dfa = array3d(1..10, 1..9, 1..2, [
  % k = 1
    0, 0,
    0, 0,
    0, 0,
    0, 0,
    0, 0,
    0, 0,
    0, 0,
    0, 0,
    0, 0,

  % k = 2
    0, 0,
    0, 0,
    0, 0,
    0, 0,
    0, 0,
    0, 0,
    0, 0,
    0, 0,
    0, 0,

  % k = 3
    0, 0,
    0, 0,
    0, 0,
    0, 0,
    0, 0,
    0, 0,
    0, 0,
    0, 0,
    0, 0,

  % k = 4
    0, 0,
    0, 0,
    0, 0,
    0, 0,
    0, 0,
    0, 0,
    0, 0,
    0, 0,
    0, 0,

  % k = 5
    0, 0,
    0, 0,
    0, 0,
    0, 0,
    0, 0,
    0, 0,
    0, 0,
    0, 0,
    0, 0,

  % k = 6
    0, 0,
    0, 0,
    0, 0,
    0, 0,
    0, 0,
    0, 0,
    0, 0,
    0, 0,
    0, 0,

  % k = 7
    0, 0,
    0, 0,
    0, 0,
    0, 0,
    0, 0,
    0, 0,
    0, 0,
    0, 0,
    0, 0,

  % k = 8
    0, 0,
    0, 0,
    0, 0,
    0, 0,
    0, 0,
    0, 0,
    0, 0,
    0, 0,
    0, 0,

  % k = 9
    0, 0,
    0, 0,
    0, 0,
    0, 0,
    0, 0,
    0, 0,
    0, 0,
    0, 0,
    0, 0,

  % k = 10
    0, 0,
    0, 0,
    0, 0,
    0, 0,
    0, 0,
    0, 0,
    0, 0,
    0, 0,
    0, 0
]);
col_d_nfa = array3d(1..10, 1..9, 1..2, [
  % k = 1
    {1}, {2},
    {3}, {},
    {3}, {4},
    {}, {5},
    {5}, {},
    {}, {},
    {}, {},
    {}, {},
    {}, {},

  % k = 2
    {1}, {2},
    {3}, {},
    {3}, {4},
    {4}, {},
    {}, {},
    {}, {},
    {}, {},
    {}, {},
    {}, {},

  % k = 3
    {1}, {2},
    {}, {3},
    {4}, {},
    {4}, {5},
    {5}, {},
    {}, {},
    {}, {},
    {}, {},
    {}, {},

  % k = 4
    {1}, {2},
    {}, {3},
    {}, {4},
    {5}, {},
    {5}, {6},
    {6}, {},
    {}, {},
    {}, {},
    {}, {},

  % k = 5
    {1}, {2},
    {3}, {},
    {3}, {4},
    {}, {5},
    {5}, {},
    {}, {},
    {}, {},
    {}, {},
    {}, {},

  % k = 6
    {1}, {2},
    {2}, {},
    {}, {},
    {}, {},
    {}, {},
    {}, {},
    {}, {},
    {}, {},
    {}, {},

  % k = 7
    {1}, {2},
    {3}, {},
    {3}, {4},
    {4}, {},
    {}, {},
    {}, {},
    {}, {},
    {}, {},
    {}, {},

  % k = 8
    {1}, {2},
    {3}, {},
    {3}, {4},
    {4}, {},
    {}, {},
    {}, {},
    {}, {},
    {}, {},
    {}, {},

  % k = 9
    {1}, {2},
    {}, {3},
    {3}, {},
    {}, {},
    {}, {},
    {}, {},
    {}, {},
    {}, {},
    {}, {},

  % k = 10
    {1}, {2},
    {}, {3},
    {4}, {},
    {4}, {5},
    {}, {6},
    {6}, {},
    {}, {},
    {}, {},
    {}, {}
]);
